CMD:
./solvers/bin/cadical --plain --no-reduce -t 1600 ./data/cnfs//6s41/6s41.99.cnf

c --- [ banner ] -------------------------------------------------------------
c 
c CaDiCaL SAT Solver
c Copyright (c) 2016-2024
c A. Biere, M. Fleury, N. Froleyks, K. Fazekas, F. Pollitt, T. Faller
c JKU Linz, University of Freiburg, TU Wien
c 
c Version 2.1.3 5296d3d2a9bf48c154ab2acb5e44625776d821bf
c g++ (Gentoo 12.3.1_p20230526 p2) 12.3.1 20230526 -Wall -Wextra -O3 -DNDEBUG
c Sat Aug 9 07:26:21 PDT 2025 Linux cedar2.int.cedar.computecanada.ca 5.14.0-362.24.2.el9_3.x86_64 x86_64
c 
c --- [ limit ] --------------------------------------------------------------
c 
c setting time limit to 1600 seconds real time (due to '-t 1600')
c 
c --- [ parsing input ] ------------------------------------------------------
c 
c reading DIMACS file from './data/cnfs//6s41/6s41.99.cnf'
c opening file to read './data/cnfs//6s41/6s41.99.cnf'
c found 'p cnf 330459 983459' header
c parsed 983459 clauses in 0.14 seconds process time
c 
c --- [ options ] ------------------------------------------------------------
c 
c   --compact=false                (different from default 'true')
c   --decompose=false              (different from default 'true')
c   --deduplicate=false            (different from default 'true')
c   --elim=false                   (different from default 'true')
c   --probe=false                  (different from default 'true')
c   --reduce=false                 (different from default 'true')
c   --subsume=false                (different from default 'true')
c   --ternary=false                (different from default 'true')
c   --transred=false               (different from default 'true')
c   --vivify=false                 (different from default 'true')
c 
c --- [ solving ] ------------------------------------------------------------
c 
c time measured in process time since initialization
c 
c  seconds   reductions  redundant  irredundant
c          MB    restarts       trail       variables
c           level   conflicts       glue          remaining
c 
c *  0.14 139  0 0   0    0    0  0% 0 794993 250103 76%
c {  0.22 142  0 0   0    0    0  0% 0 794993 250103 76%
c i  0.25 142 37 0   4   86   84 27% 1 794993 249560 76%
c i  0.25 142 36 0   5   87   84 27% 1 794993 249552 76%
c i  0.25 142 36 0   5   92   87 27% 1 794993 249517 76%
c i  0.25 142 35 0   6   93   87 27% 1 794993 249512 76%
c i  0.25 142 35 0   6   94   87 27% 1 794993 249507 76%
c i  0.25 142 35 0  10  112  101 27% 2 794993 249506 76%
c i  0.25 142 34 0  11  115  103 27% 2 794993 249505 76%
c i  0.25 142 34 0  12  116  103 27% 2 794993 249377 75%
c i  0.28 143 35 0  18  141  124 28% 2 794993 249376 75%
c i  0.29 143 30 0  33  193  175 28% 2 794993 249375 75%
c i  0.30 143 30 0  35  204  183 28% 2 794993 249187 75%
c i  0.30 143 28 0  43  234  212 28% 2 794993 248934 75%
c i  0.30 143 28 0  44  236  213 28% 2 794993 248762 75%
c i  0.31 143 28 0  52  282  256 28% 2 794993 248692 75%
c i  0.31 143 28 0  53  283  256 28% 2 794993 248636 75%
c i  0.31 143 28 0  53  284  256 28% 2 794993 248633 75%
c i  0.32 143 28 0  59  306  275 29% 2 794993 248625 75%
c i  0.34 143 28 0  74  366  329 29% 2 794993 248593 75%
c 
c  seconds   reductions  redundant  irredundant
c          MB    restarts       trail       variables
c           level   conflicts       glue          remaining
c 
c i  0.37 143 30 0 104  487  437 29% 2 794993 248578 75%
c i  0.37 143 30 0 104  488  437 29% 2 794993 248538 75%
c i  0.37 143 30 0 105  490  438 29% 2 794993 248462 75%
c i  0.39 143 29 0 117  569  507 29% 2 794993 248460 75%
c i  0.40 143 29 0 127  628  561 29% 2 794993 248457 75%
c i  0.40 143 29 0 127  639  569 29% 2 794993 248455 75%
c i  0.45 143 40 0 137  746  657 31% 3 794993 248450 75%
c i  0.45 143 40 0 137  747  657 31% 3 794993 248415 75%
c i  0.45 143 40 0 138  748  657 31% 3 794993 248345 75%
c i  0.45 143 40 0 138  749  657 31% 3 794993 248310 75%
c i  0.50 143 42 0 160  835  738 31% 3 794993 248308 75%
c }  0.58 143 46 0 199 1001  897 31% 3 794993 248308 75%
c [  0.58 143  0 0 199 1001  897  0% 0 794993 248308 75%
c O  0.63 143 1297 0 199 1002  898 87% 5 794993 248308 75%
c i  0.64 143 1291 0 199 1012  905 89% 6 794993 248247 75%
c i  0.64 143 1288 0 199 1016  906 89% 6 794993 248121 75%
c i  0.64 144 1282 0 199 1022  911 89% 8 794993 248027 75%
c i  0.65 144 1270 0 199 1035  923 88% 12 794993 247934 75%
c ]  0.91 144 670 0 200 3001 2784 58% 14 794993 247934 75%
c {  0.91 144 46 0 200 3001 2784 31% 3 794993 247934 75%
c 
c  seconds   reductions  redundant  irredundant
c          MB    restarts       trail       variables
c           level   conflicts       glue          remaining
c 
c F  0.92 144 46 0 202 3006 2789 31% 3 794993 247934 75%
c i  0.94 144 46 0 211 3054 2836 31% 3 794993 247933 75%
c i  0.94 144 46 0 213 3095 2872 31% 3 794993 247932 75%
c i  0.97 144 45 0 226 3177 2943 31% 3 794993 247697 75%
... skipped 33173 lines ...
v -329974 -329975 -329976 329977 -329978 329979 -329980 -329981 -329982
v -329983 -329984 -329985 -329986 329987 -329988 329989 -329990 -329991 329992
v -329993 -329994 -329995 329996 -329997 -329998 329999 330000 -330001 -330002
v -330003 -330004 -330005 -330006 -330007 330008 330009 -330010 330011 -330012
v -330013 -330014 -330015 330016 330017 -330018 -330019 330020 -330021 -330022
v -330023 -330024 330025 330026 -330027 -330028 -330029 330030 -330031 -330032
v 330033 330034 -330035 -330036 330037 330038 -330039 -330040 -330041 330042
v -330043 -330044 -330045 -330046 330047 330048 -330049 -330050 330051 -330052
v 330053 -330054 -330055 -330056 330057 -330058 330059 330060 -330061 -330062
v -330063 -330064 -330065 330066 -330067 -330068 330069 -330070 -330071
v -330072 330073 -330074 -330075 330076 -330077 -330078 -330079 330080 -330081
v -330082 -330083 -330084 330085 330086 -330087 -330088 -330089 -330090
v -330091 330092 330093 330094 -330095 -330096 -330097 -330098 330099 330100
v -330101 -330102 -330103 330104 -330105 -330106 330107 -330108 -330109
v -330110 330111 -330112 -330113 330114 330115 -330116 -330117 330118 330119
v 330120 330121 -330122 -330123 330124 330125 -330126 -330127 330128 -330129
v -330130 -330131 -330132 -330133 -330134 330135 -330136 330137 330138 330139
v -330140 -330141 330142 -330143 -330144 -330145 -330146 330147 330148 330149
v -330150 -330151 330152 330153 -330154 -330155 330156 -330157 -330158 -330159
v -330160 330161 330162 330163 -330164 -330165 330166 330167 -330168 -330169
v 330170 -330171 -330172 -330173 -330174 -330175 -330176 330177 -330178
v -330179 330180 -330181 -330182 330183 -330184 -330185 330186 330187 330188
v -330189 -330190 -330191 -330192 -330193 330194 330195 -330196 330197 -330198
v -330199 -330200 330201 -330202 -330203 330204 330205 -330206 -330207 330208
v -330209 -330210 330211 330212 330213 -330214 -330215 -330216 -330217 -330218
v 330219 330220 -330221 330222 -330223 -330224 -330225 330226 -330227 -330228
v 330229 330230 -330231 -330232 330233 -330234 -330235 330236 330237 330238
v -330239 -330240 -330241 -330242 -330243 330244 330245 -330246 330247 -330248
v -330249 -330250 330251 -330252 -330253 330254 330255 -330256 -330257 330258
v -330259 330260 -330261 -330262 330263 330264 -330265 -330266 -330267 330268
v -330269 330270 -330271 -330272 330273 -330274 -330275 330276 330277 330278
v -330279 330280 330281 -330282 -330283 -330284 -330285 330286 330287 330288
v -330289 -330290 -330291 -330292 -330293 -330294 -330295 330296 -330297
v -330298 330299 -330300 -330301 330302 330303 330304 -330305 -330306 330307
v -330308 -330309 -330310 -330311 330312 -330313 330314 330315 330316 330317
v 330318 -330319 -330320 -330321 -330322 330323 330324 -330325 -330326 -330327
v -330328 -330329 -330330 -330331 -330332 -330333 -330334 -330335 -330336
v -330337 -330338 330339 -330340 -330341 -330342 -330343 330344 330345 -330346
v -330347 330348 330349 -330350 -330351 330352 330353 330354 -330355 -330356
v -330357 -330358 -330359 330360 330361 -330362 -330363 -330364 330365 330366
v -330367 -330368 330369 330370 330371 -330372 330373 -330374 330375 -330376
v -330377 -330378 -330379 -330380 -330381 330382 330383 330384 -330385 -330386
v -330387 -330388 330389 -330390 -330391 330392 -330393 -330394 -330395 330396
v -330397 -330398 330399 -330400 -330401 -330402 330403 -330404 -330405
v -330406 -330407 -330408 330409 330410 330411 -330412 -330413 -330414 -330415
v 330416 -330417 -330418 -330419 330420 -330421 -330422 -330423 330424 -330425
v -330426 -330427 330428 -330429 -330430 -330431 330432 -330433 -330434
v -330435 330436 -330437 330438 -330439 -330440 -330441 -330442 330443 330444
v -330445 330446 -330447 -330448 330449 -330450 -330451 -330452 330453 -330454
v -330455 330456 -330457 330458 -330459 0
c 
c --- [ run-time profiling ] -------------------------------------------------
c 
c process time taken by individual solving procedures
c (percentage relative to process time for solving)
c 
c        71.86  100.00% search
c        36.88   51.32% unstable
c        33.58   46.73% stable
c         1.32    1.83% walk
c         0.14    0.19% parse
c         0.08    0.12% lucky
c         0.00    0.00% simplify
c   =================================
c        71.86   99.79% solve
c 
c last line shows process time for solving
c (percentage relative to total process time)
c 
c --- [ statistics ] ---------------------------------------------------------
c 
c chronological:             77356        41.06 %  of conflicts
c conflicts:                188375      2621.51    per second
c decisions:                805904     11215.31    per second
c fixed:                     91243        27.61 %  of all variables
c learned:                  181317        96.25 %  per conflict
c learned_lits:           10352020       100.00 %  learned literals
c minimized:                     0         0.00 %  learned literals
c shrunken:                2143853        20.71 %  learned literals
c minishrunken:            2319024        22.40 %  learned literals
c otfs:                       1087         0.58 %  of conflict
c propagations:          863198180        12.01 M  per second
c rephased:                     18     10465.28    interval
c restarts:                  12885        14.62    interval
c stabilizing:                   4        54.87 %  of conflicts
c subsumed:                   8382         0.86 %  of all clauses
c strengthened:               1066         0.11 %  of all clauses
c walked:                        5     37675.00    interval
c 
c seconds are measured in process time for solving
c 
c --- [ resources ] ----------------------------------------------------------
c 
c total process time since initialization:        72.01    seconds
c total real time since initialization:           72.33    seconds
c maximum resident set size of process:          221.60    MB
c 
c --- [ shutting down ] ------------------------------------------------------
c 
c exit 10
